set N := AA AB AC AD AE AF AG AH AI AJ AK AL AM AN AO AP AQ AR AS AT;

set T := AA AB AC AD AE AF AG AH AI AJ;

table	K={K}	u(K)	o(K)	o_(K):
	K	u	o	o_	:=
	1	7.09	AK	AL
	2	12.16	AM	AN
	3	15.83	AO	AP
	4	6.20	AQ	AR
	5	19.00	AS	AT
;

param c default 0 :=
AA	AB	1	766.12
AA	AB	2	376.91
AA	AB	3	695.84
AA	AB	4	725.33
AA	AB	5	821.56
AA	AC	1	762.33
AA	AC	2	375.04
AA	AC	3	692.39
AA	AC	4	721.73
AA	AC	5	817.49
AA	AD	1	1002.30
AA	AD	2	493.09
AA	AD	3	910.34
AA	AD	4	948.92
AA	AD	5	1074.82
AA	AE	1	495.21
AA	AE	2	243.62
AA	AE	3	449.78
AA	AE	4	468.84
AA	AE	5	531.04
AA	AF	1	688.10
AA	AF	2	338.52
AA	AF	3	624.98
AA	AF	4	651.46
AA	AF	5	737.90
AA	AG	1	727.24
AA	AG	2	357.78
AA	AG	3	660.52
AA	AG	4	688.51
AA	AG	5	779.86
AA	AH	1	427.43
AA	AH	2	210.28
AA	AH	3	388.22
AA	AH	4	404.67
AA	AH	5	458.36
AA	AI	1	504.15
AA	AI	2	248.02
AA	AI	3	457.90
AA	AI	4	477.30
AA	AI	5	540.63
AA	AJ	1	346.64
AA	AJ	2	170.53
AA	AJ	3	314.84
AA	AJ	4	328.18
AA	AJ	5	371.72
AA	AK	1	128.14
AA	AK	2	63.04
AA	AK	3	116.39
AA	AK	4	121.32
AA	AK	5	137.42
AA	AL	1	594.70
AA	AL	2	292.57
AA	AL	3	540.15
AA	AL	4	563.04
AA	AL	5	637.74
AA	AM	1	626.08
AA	AM	2	308.01
AA	AM	3	568.64
AA	AM	4	592.74
AA	AM	5	671.39
AA	AN	1	768.60
AA	AN	2	378.12
AA	AN	3	698.08
AA	AN	4	727.67
AA	AN	5	824.21
AA	AO	1	793.88
AA	AO	2	390.56
AA	AO	3	721.05
AA	AO	4	751.60
AA	AO	5	851.33
AA	AP	1	791.81
AA	AP	2	389.54
AA	AP	3	719.17
AA	AP	4	749.64
AA	AP	5	849.11
AA	AQ	1	501.10
AA	AQ	2	246.52
AA	AQ	3	455.13
AA	AQ	4	474.41
AA	AQ	5	537.36
AA	AR	1	709.96
AA	AR	2	349.27
AA	AR	3	644.82
AA	AR	4	672.15
AA	AR	5	761.33
AA	AS	1	825.03
AA	AS	2	405.88
AA	AS	3	749.34
AA	AS	4	781.09
AA	AS	5	884.73
AA	AT	1	768.15
AA	AT	2	377.90
AA	AT	3	697.67
AA	AT	4	727.24
AA	AT	5	823.73
AB	AA	1	766.12
AB	AA	2	376.91
AB	AA	3	695.84
AB	AA	4	725.33
AB	AA	5	821.56
AB	AC	1	257.99
AB	AC	2	126.92
AB	AC	3	234.32
AB	AC	4	244.25
AB	AC	5	276.65
AB	AD	1	769.32
AB	AD	2	378.48
AB	AD	3	698.75
AB	AD	4	728.36
AB	AD	5	824.99
AB	AE	1	708.89
AB	AE	2	348.75
AB	AE	3	643.85
AB	AE	4	671.14
AB	AE	5	760.18
AB	AF	1	444.34
AB	AF	2	218.60
AB	AF	3	403.57
AB	AF	4	420.68
AB	AF	5	476.49
AB	AG	1	747.23
AB	AG	2	367.61
AB	AG	3	678.68
AB	AG	4	707.44
AB	AG	5	801.30
AB	AH	1	974.27
AB	AH	2	479.31
AB	AH	3	884.89
AB	AH	4	922.39
AB	AH	5	1044.77
AB	AI	1	435.71
AB	AI	2	214.35
AB	AI	3	395.74
AB	AI	4	412.51
AB	AI	5	467.24
AB	AJ	1	435.71
AB	AJ	2	214.35
AB	AJ	3	395.74
AB	AJ	4	412.51
AB	AJ	5	467.24
AB	AK	1	728.92
AB	AK	2	358.60
AB	AK	3	662.05
AB	AK	4	690.11
AB	AK	5	781.67
AB	AL	1	327.84
AB	AL	2	161.29
AB	AL	3	297.76
AB	AL	4	310.38
AB	AL	5	351.56
AB	AM	1	144.19
AB	AM	2	70.93
AB	AM	3	130.96
AB	AM	4	136.51
AB	AM	5	154.62
AB	AN	1	179.85
AB	AN	2	88.48
AB	AN	3	163.35
AB	AN	4	170.28
AB	AN	5	192.87
AB	AO	1	110.06
AB	AO	2	54.15
AB	AO	3	99.96
AB	AO	4	104.20
AB	AO	5	118.02
AB	AP	1	277.62
AB	AP	2	136.58
AB	AP	3	252.15
AB	AP	4	262.84
AB	AP	5	297.71
AB	AQ	1	265.05
AB	AQ	2	130.40
AB	AQ	3	240.73
AB	AQ	4	250.94
AB	AQ	5	284.23
AB	AR	1	498.34
AB	AR	2	245.17
AB	AR	3	452.62
AB	AR	4	471.80
AB	AR	5	534.40
AB	AS	1	155.67
AB	AS	2	76.58
AB	AS	3	141.39
AB	AS	4	147.38
AB	AS	5	166.93
AB	AT	1	122.46
AB	AT	2	60.24
AB	AT	3	111.22
AB	AT	4	115.94
AB	AT	5	131.32
AC	AA	1	762.33
AC	AA	2	375.04
AC	AA	3	692.39
AC	AA	4	721.73
AC	AA	5	817.49
AC	AB	1	257.99
AC	AB	2	126.92
AC	AB	3	234.32
AC	AB	4	244.25
AC	AB	5	276.65
AC	AD	1	1016.68
AC	AD	2	500.17
AC	AD	3	923.41
AC	AD	4	962.54
AC	AD	5	1090.24
AC	AE	1	862.14
AC	AE	2	424.14
AC	AE	3	783.05
AC	AE	4	816.23
AC	AE	5	924.53
AC	AF	1	667.34
AC	AF	2	328.31
AC	AF	3	606.12
AC	AF	4	631.81
AC	AF	5	715.63
AC	AG	1	952.01
AC	AG	2	468.36
AC	AG	3	864.67
AC	AG	4	901.32
AC	AG	5	1020.90
AC	AH	1	1068.10
AC	AH	2	525.47
AC	AH	3	970.11
AC	AH	4	1011.22
AC	AH	5	1145.39
AC	AI	1	294.38
AC	AI	2	144.82
AC	AI	3	267.37
AC	AI	4	278.70
AC	AI	5	315.68
AC	AJ	1	419.52
AC	AJ	2	206.39
AC	AJ	3	381.03
AC	AJ	4	397.18
AC	AJ	5	449.87
AC	AK	1	768.40
AC	AK	2	378.02
AC	AK	3	697.90
AC	AK	4	727.48
AC	AK	5	824.00
AC	AL	1	524.61
AC	AL	2	258.09
AC	AL	3	476.48
AC	AL	4	496.67
AC	AL	5	562.57
AC	AM	1	299.63
AC	AM	2	147.41
AC	AM	3	272.14
AC	AM	4	283.67
AC	AM	5	321.31
AC	AN	1	433.46
AC	AN	2	213.24
AC	AN	3	393.69
AC	AN	4	410.37
AC	AN	5	464.82
AC	AO	1	160.40
AC	AO	2	78.91
AC	AO	3	145.68
AC	AO	4	151.85
AC	AO	5	172.00
AC	AP	1	530.69
AC	AP	2	261.08
AC	AP	3	482.01
AC	AP	4	502.43
AC	AP	5	569.09
AC	AQ	1	336.61
AC	AQ	2	165.60
AC	AQ	3	305.73
AC	AQ	4	318.68
AC	AQ	5	360.97
AC	AR	1	722.66
AC	AR	2	355.52
AC	AR	3	656.36
AC	AR	4	684.18
AC	AR	5	774.95
AC	AS	1	139.77
AC	AS	2	68.76
AC	AS	3	126.94
AC	AS	4	132.32
AC	AS	5	149.88
AC	AT	1	377.90
AC	AT	2	185.91
AC	AT	3	343.23
AC	AT	4	357.78
AC	AT	5	405.25
AD	AA	1	1002.30
AD	AA	2	493.09
AD	AA	3	910.34
AD	AA	4	948.92
AD	AA	5	1074.82
AD	AB	1	769.32
AD	AB	2	378.48
AD	AB	3	698.75
AD	AB	4	728.36
AD	AB	5	824.99
AD	AC	1	1016.68
AD	AC	2	500.17
AD	AC	3	923.41
AD	AC	4	962.54
AD	AC	5	1090.24
AD	AE	1	538.84
AD	AE	2	265.09
AD	AE	3	489.40
AD	AE	4	510.14
AD	AE	5	577.83
AD	AF	1	376.30
AD	AF	2	185.12
AD	AF	3	341.78
AD	AF	4	356.26
AD	AF	5	403.53
AD	AG	1	317.02
AD	AG	2	155.96
AD	AG	3	287.94
AD	AG	4	300.14
AD	AG	5	339.96
AD	AH	1	845.40
AD	AH	2	415.91
AD	AH	3	767.84
AD	AH	4	800.38
AD	AH	5	906.57
AD	AI	1	1056.75
AD	AI	2	519.88
AD	AI	3	959.80
AD	AI	4	1000.47
AD	AI	5	1133.22
AD	AJ	1	896.68
AD	AJ	2	441.13
AD	AJ	3	814.42
AD	AJ	4	848.93
AD	AJ	5	961.56
AD	AK	1	882.20
AD	AK	2	434.01
AD	AK	3	801.26
AD	AK	4	835.22
AD	AK	5	946.03
AD	AL	1	531.24
AD	AL	2	261.35
AD	AL	3	482.50
AD	AL	4	502.95
AD	AL	5	569.68
AD	AM	1	730.37
AD	AM	2	359.31
AD	AM	3	663.36
AD	AM	4	691.47
AD	AM	5	783.21
AD	AN	1	589.70
AD	AN	2	290.11
AD	AN	3	535.60
AD	AN	4	558.30
AD	AN	5	632.37
AD	AO	1	879.32
AD	AO	2	432.59
AD	AO	3	798.65
AD	AO	4	832.49
AD	AO	5	942.94
AD	AP	1	492.51
AD	AP	2	242.30
AD	AP	3	447.33
AD	AP	4	466.28
AD	AP	5	528.15
AD	AQ	1	772.82
AD	AQ	2	380.20
AD	AQ	3	701.92
AD	AQ	4	731.67
AD	AQ	5	828.74
AD	AR	1	328.28
AD	AR	2	161.50
AD	AR	3	298.16
AD	AR	4	310.80
AD	AR	5	352.04
AD	AS	1	923.59
AD	AS	2	454.37
AD	AS	3	838.86
AD	AS	4	874.41
AD	AS	5	990.42
AD	AT	1	647.39
AD	AT	2	318.49
AD	AT	3	588.00
AD	AT	4	612.92
AD	AT	5	694.24
AE	AA	1	495.21
AE	AA	2	243.62
AE	AA	3	449.78
AE	AA	4	468.84
AE	AA	5	531.04
AE	AB	1	708.89
AE	AB	2	348.75
AE	AB	3	643.85
AE	AB	4	671.14
AE	AB	5	760.18
AE	AC	1	862.14
AE	AC	2	424.14
AE	AC	3	783.05
AE	AC	4	816.23
AE	AC	5	924.53
AE	AD	1	538.84
AE	AD	2	265.09
AE	AD	3	489.40
AE	AD	4	510.14
AE	AD	5	577.83
AE	AF	1	351.76
AE	AF	2	173.05
AE	AF	3	319.49
AE	AF	4	333.02
AE	AF	5	377.21
AE	AG	1	236.30
AE	AG	2	116.25
AE	AG	3	214.62
AE	AG	4	223.71
AE	AG	5	253.39
AE	AH	1	334.17
AE	AH	2	164.40
AE	AH	3	303.52
AE	AH	4	316.38
AE	AH	5	358.35
AE	AI	1	747.23
AE	AI	2	367.61
AE	AI	3	678.68
AE	AI	4	707.44
AE	AI	5	801.30
AE	AJ	1	538.84
AE	AJ	2	265.09
AE	AJ	3	489.40
AE	AJ	4	510.14
AE	AJ	5	577.83
AE	AK	1	367.53
AE	AK	2	180.81
AE	AK	3	333.82
AE	AK	4	347.96
AE	AK	5	394.13
AE	AL	1	387.38
AE	AL	2	190.57
AE	AL	3	351.84
AE	AL	4	366.75
AE	AL	5	415.41
AE	AM	1	583.50
AE	AM	2	287.06
AE	AM	3	529.97
AE	AM	4	552.43
AE	AM	5	625.73
AE	AN	1	595.62
AE	AN	2	293.02
AE	AN	3	540.97
AE	AN	4	563.90
AE	AN	5	638.71
AE	AO	1	795.96
AE	AO	2	391.58
AE	AO	3	722.94
AE	AO	4	753.57
AE	AO	5	853.56
AE	AP	1	553.38
AE	AP	2	272.24
AE	AP	3	502.61
AE	AP	4	523.91
AE	AP	5	593.42
AE	AQ	1	527.28
AE	AQ	2	259.40
AE	AQ	3	478.91
AE	AQ	4	499.20
AE	AQ	5	565.44
AE	AR	1	334.81
AE	AR	2	164.71
AE	AR	3	304.09
AE	AR	4	316.98
AE	AR	5	359.03
AE	AS	1	842.36
AE	AS	2	414.41
AE	AS	3	765.08
AE	AS	4	797.51
AE	AS	5	903.32
AE	AT	1	632.41
AE	AT	2	311.12
AE	AT	3	574.39
AE	AT	4	598.73
AE	AT	5	678.17
AF	AA	1	688.10
AF	AA	2	338.52
AF	AA	3	624.98
AF	AA	4	651.46
AF	AA	5	737.90
AF	AB	1	444.34
AF	AB	2	218.60
AF	AB	3	403.57
AF	AB	4	420.68
AF	AB	5	476.49
AF	AC	1	667.34
AF	AC	2	328.31
AF	AC	3	606.12
AF	AC	4	631.81
AF	AC	5	715.63
AF	AD	1	376.30
AF	AD	2	185.12
AF	AD	3	341.78
AF	AD	4	356.26
AF	AD	5	403.53
AF	AE	1	351.76
AF	AE	2	173.05
AF	AE	3	319.49
AF	AE	4	333.02
AF	AE	5	377.21
AF	AG	1	307.73
AF	AG	2	151.39
AF	AG	3	279.50
AF	AG	4	291.34
AF	AG	5	330.00
AF	AH	1	680.60
AF	AH	2	334.83
AF	AH	3	618.16
AF	AH	4	644.35
AF	AH	5	729.85
AF	AI	1	680.60
AF	AI	2	334.83
AF	AI	3	618.16
AF	AI	4	644.35
AF	AI	5	729.85
AF	AJ	1	524.98
AF	AJ	2	258.27
AF	AJ	3	476.82
AF	AJ	4	497.03
AF	AJ	5	562.97
AF	AK	1	585.41
AF	AK	2	288.00
AF	AK	3	531.70
AF	AK	4	554.23
AF	AK	5	627.77
AF	AL	1	155.65
AF	AL	2	76.57
AF	AL	3	141.37
AF	AL	4	147.36
AF	AL	5	166.91
AF	AM	1	369.54
AF	AM	2	181.80
AF	AM	3	335.64
AF	AM	4	349.86
AF	AM	5	396.28
AF	AN	1	284.24
AF	AN	2	139.83
AF	AN	3	258.16
AF	AN	4	269.10
AF	AN	5	304.81
AF	AO	1	550.75
AF	AO	2	270.95
AF	AO	3	500.22
AF	AO	4	521.42
AF	AO	5	590.60
AF	AP	1	214.57
AF	AP	2	105.56
AF	AP	3	194.88
AF	AP	4	203.14
AF	AP	5	230.09
AF	AQ	1	397.18
AF	AQ	2	195.40
AF	AQ	3	360.74
AF	AQ	4	376.03
AF	AQ	5	425.92
AF	AR	1	55.32
AF	AR	2	27.21
AF	AR	3	50.24
AF	AR	4	52.37
AF	AR	5	59.32
AF	AS	1	598.17
AF	AS	2	294.28
AF	AS	3	543.29
AF	AS	4	566.32
AF	AS	5	641.45
AF	AT	1	335.65
AF	AT	2	165.13
AF	AT	3	304.86
AF	AT	4	317.77
AF	AT	5	359.94
AG	AA	1	727.24
AG	AA	2	357.78
AG	AA	3	660.52
AG	AA	4	688.51
AG	AA	5	779.86
AG	AB	1	747.23
AG	AB	2	367.61
AG	AB	3	678.68
AG	AB	4	707.44
AG	AB	5	801.30
AG	AC	1	952.01
AG	AC	2	468.36
AG	AC	3	864.67
AG	AC	4	901.32
AG	AC	5	1020.90
AG	AD	1	317.02
AG	AD	2	155.96
AG	AD	3	287.94
AG	AD	4	300.14
AG	AD	5	339.96
AG	AE	1	236.30
AG	AE	2	116.25
AG	AE	3	214.62
AG	AE	4	223.71
AG	AE	5	253.39
AG	AF	1	307.73
AG	AF	2	151.39
AG	AF	3	279.50
AG	AF	4	291.34
AG	AF	5	330.00
AG	AH	1	528.37
AG	AH	2	259.94
AG	AH	3	479.90
AG	AH	4	500.24
AG	AH	5	566.61
AG	AI	1	902.89
AG	AI	2	444.19
AG	AI	3	820.05
AG	AI	4	854.81
AG	AI	5	968.22
AG	AJ	1	708.89
AG	AJ	2	348.75
AG	AJ	3	643.85
AG	AJ	4	671.14
AG	AJ	5	760.18
AG	AK	1	600.80
AG	AK	2	295.57
AG	AK	3	545.68
AG	AK	4	568.81
AG	AK	5	644.27
AG	AL	1	428.42
AG	AL	2	210.77
AG	AL	3	389.12
AG	AL	4	405.61
AG	AL	5	459.42
AG	AM	1	653.29
AG	AM	2	321.40
AG	AM	3	593.36
AG	AM	4	618.50
AG	AM	5	700.56
AG	AN	1	591.97
AG	AN	2	291.23
AG	AN	3	537.66
AG	AN	4	560.44
AG	AN	5	634.80
AG	AO	1	850.33
AG	AO	2	418.33
AG	AO	3	772.32
AG	AO	4	805.05
AG	AO	5	911.86
AG	AP	1	517.37
AG	AP	2	254.53
AG	AP	3	469.90
AG	AP	4	489.82
AG	AP	5	554.81
AG	AQ	1	641.53
AG	AQ	2	315.61
AG	AQ	3	582.68
AG	AQ	4	607.37
AG	AQ	5	687.95
AG	AR	1	259.40
AG	AR	2	127.61
AG	AR	3	235.60
AG	AR	4	245.58
AG	AR	5	278.17
AG	AS	1	898.12
AG	AS	2	441.84
AG	AS	3	815.73
AG	AS	4	850.30
AG	AS	5	963.11
AG	AT	1	642.80
AG	AT	2	316.24
AG	AT	3	583.83
AG	AT	4	608.57
AG	AT	5	689.32
AH	AA	1	427.43
AH	AA	2	210.28
AH	AA	3	388.22
AH	AA	4	404.67
AH	AA	5	458.36
AH	AB	1	974.27
AH	AB	2	479.31
AH	AB	3	884.89
AH	AB	4	922.39
AH	AB	5	1044.77
AH	AC	1	1068.10
AH	AC	2	525.47
AH	AC	3	970.11
AH	AC	4	1011.22
AH	AC	5	1145.39
AH	AD	1	845.40
AH	AD	2	415.91
AH	AD	3	767.84
AH	AD	4	800.38
AH	AD	5	906.57
AH	AE	1	334.17
AH	AE	2	164.40
AH	AE	3	303.52
AH	AE	4	316.38
AH	AE	5	358.35
AH	AF	1	680.60
AH	AF	2	334.83
AH	AF	3	618.16
AH	AF	4	644.35
AH	AF	5	729.85
AH	AG	1	528.37
AH	AG	2	259.94
AH	AG	3	479.90
AH	AG	4	500.24
AH	AG	5	566.61
AH	AI	1	871.42
AH	AI	2	428.71
AH	AI	3	791.47
AH	AI	4	825.01
AH	AI	5	934.47
AH	AJ	1	668.35
AH	AJ	2	328.80
AH	AJ	3	607.03
AH	AJ	4	632.76
AH	AJ	5	716.71
AH	AK	1	334.87
AH	AK	2	164.74
AH	AK	3	304.14
AH	AK	4	317.03
AH	AK	5	359.10
AH	AL	1	682.49
AH	AL	2	335.76
AH	AL	3	619.87
AH	AL	4	646.14
AH	AL	5	731.87
AH	AM	1	834.11
AH	AM	2	410.35
AH	AM	3	757.59
AH	AM	4	789.69
AH	AM	5	894.47
AH	AN	1	895.31
AH	AN	2	440.46
AH	AN	3	813.17
AH	AN	4	847.63
AH	AN	5	960.09
AH	AO	1	1042.21
AH	AO	2	512.73
AH	AO	3	946.60
AH	AO	4	986.71
AH	AO	5	1117.62
AH	AP	1	869.59
AH	AP	2	427.81
AH	AP	3	789.82
AH	AP	4	823.29
AH	AP	5	932.52
AH	AQ	1	740.79
AH	AQ	2	364.44
AH	AQ	3	672.83
AH	AQ	4	701.34
AH	AQ	5	794.39
AH	AR	1	668.21
AH	AR	2	328.73
AH	AR	3	606.91
AH	AR	4	632.62
AH	AR	5	716.56
AH	AS	1	1084.43
AH	AS	2	533.50
AH	AS	3	984.94
AH	AS	4	1026.68
AH	AS	5	1162.90
AH	AT	1	921.97
AH	AT	2	453.57
AH	AT	3	837.38
AH	AT	4	872.87
AH	AT	5	988.68
AI	AA	1	504.15
AI	AA	2	248.02
AI	AA	3	457.90
AI	AA	4	477.30
AI	AA	5	540.63
AI	AB	1	435.71
AI	AB	2	214.35
AI	AB	3	395.74
AI	AB	4	412.51
AI	AB	5	467.24
AI	AC	1	294.38
AI	AC	2	144.82
AI	AC	3	267.37
AI	AC	4	278.70
AI	AC	5	315.68
AI	AD	1	1056.75
AI	AD	2	519.88
AI	AD	3	959.80
AI	AD	4	1000.47
AI	AD	5	1133.22
AI	AE	1	747.23
AI	AE	2	367.61
AI	AE	3	678.68
AI	AE	4	707.44
AI	AE	5	801.30
AI	AF	1	680.60
AI	AF	2	334.83
AI	AF	3	618.16
AI	AF	4	644.35
AI	AF	5	729.85
AI	AG	1	902.89
AI	AG	2	444.19
AI	AG	3	820.05
AI	AG	4	854.81
AI	AG	5	968.22
AI	AH	1	871.42
AI	AH	2	428.71
AI	AH	3	791.47
AI	AH	4	825.01
AI	AH	5	934.47
AI	AJ	1	211.35
AI	AJ	2	103.98
AI	AJ	3	191.96
AI	AJ	4	200.09
AI	AJ	5	226.64
AI	AK	1	543.38
AI	AK	2	267.32
AI	AK	3	493.53
AI	AK	4	514.44
AI	AK	5	582.69
AI	AL	1	525.58
AI	AL	2	258.56
AI	AL	3	477.36
AI	AL	4	497.59
AI	AL	5	563.61
AI	AM	1	362.48
AI	AM	2	178.33
AI	AM	3	329.23
AI	AM	4	343.18
AI	AM	5	388.71
AI	AN	1	553.60
AI	AN	2	272.35
AI	AN	3	502.81
AI	AN	4	524.12
AI	AN	5	593.66
AI	AO	1	396.47
AI	AO	2	195.05
AI	AO	3	360.10
AI	AO	4	375.36
AI	AO	5	425.16
AI	AP	1	632.76
AI	AP	2	311.29
AI	AP	3	574.71
AI	AP	4	599.06
AI	AP	5	678.54
AI	AQ	1	284.49
AI	AQ	2	139.96
AI	AQ	3	258.39
AI	AQ	4	269.34
AI	AQ	5	305.07
AI	AR	1	730.87
AI	AR	2	359.56
AI	AR	3	663.82
AI	AR	4	691.95
AI	AR	5	783.76
AI	AS	1	405.30
AI	AS	2	199.39
AI	AS	3	368.11
AI	AS	4	383.71
AI	AS	5	434.62
AI	AT	1	515.57
AI	AT	2	253.64
AI	AT	3	468.27
AI	AT	4	488.11
AI	AT	5	552.87
AJ	AA	1	346.64
AJ	AA	2	170.53
AJ	AA	3	314.84
AJ	AA	4	328.18
AJ	AA	5	371.72
AJ	AB	1	435.71
AJ	AB	2	214.35
AJ	AB	3	395.74
AJ	AB	4	412.51
AJ	AB	5	467.24
AJ	AC	1	419.52
AJ	AC	2	206.39
AJ	AC	3	381.03
AJ	AC	4	397.18
AJ	AC	5	449.87
AJ	AD	1	896.68
AJ	AD	2	441.13
AJ	AD	3	814.42
AJ	AD	4	848.93
AJ	AD	5	961.56
AJ	AE	1	538.84
AJ	AE	2	265.09
AJ	AE	3	489.40
AJ	AE	4	510.14
AJ	AE	5	577.83
AJ	AF	1	524.98
AJ	AF	2	258.27
AJ	AF	3	476.82
AJ	AF	4	497.03
AJ	AF	5	562.97
AJ	AG	1	708.89
AJ	AG	2	348.75
AJ	AG	3	643.85
AJ	AG	4	671.14
AJ	AG	5	760.18
AJ	AH	1	668.35
AJ	AH	2	328.80
AJ	AH	3	607.03
AJ	AH	4	632.76
AJ	AH	5	716.71
AJ	AI	1	211.35
AJ	AI	2	103.98
AJ	AI	3	191.96
AJ	AI	4	200.09
AJ	AI	5	226.64
AJ	AK	1	351.57
AJ	AK	2	172.96
AJ	AK	3	319.32
AJ	AK	4	332.85
AJ	AK	5	377.01
AJ	AL	1	380.31
AJ	AL	2	187.10
AJ	AL	3	345.42
AJ	AL	4	360.06
AJ	AL	5	407.83
AJ	AM	1	307.94
AJ	AM	2	151.50
AJ	AM	3	279.69
AJ	AM	4	291.54
AJ	AM	5	330.22
AJ	AN	1	484.13
AJ	AN	2	238.17
AJ	AN	3	439.71
AJ	AN	4	458.35
AJ	AN	5	519.16
AJ	AO	1	449.86
AJ	AO	2	221.31
AJ	AO	3	408.59
AJ	AO	4	425.90
AJ	AO	5	482.41
AJ	AP	1	538.26
AJ	AP	2	264.80
AJ	AP	3	488.88
AJ	AP	4	509.60
AJ	AP	5	577.21
AJ	AQ	1	182.79
AJ	AQ	2	89.93
AJ	AQ	3	166.02
AJ	AQ	4	173.06
AJ	AQ	5	196.02
AJ	AR	1	568.84
AJ	AR	2	279.85
AJ	AR	3	516.65
AJ	AR	4	538.55
AJ	AR	5	610.00
AJ	AS	1	479.07
AJ	AS	2	235.68
AJ	AS	3	435.11
AJ	AS	4	453.55
AJ	AS	5	513.73
AJ	AT	1	466.29
AJ	AT	2	229.40
AJ	AT	3	423.51
AJ	AT	4	441.45
AJ	AT	5	500.03
AK	AA	1	128.14
AK	AA	2	63.04
AK	AA	3	116.39
AK	AA	4	121.32
AK	AA	5	137.42
AK	AB	1	728.92
AK	AB	2	358.60
AK	AB	3	662.05
AK	AB	4	690.11
AK	AB	5	781.67
AK	AC	1	768.40
AK	AC	2	378.02
AK	AC	3	697.90
AK	AC	4	727.48
AK	AC	5	824.00
AK	AD	1	882.20
AK	AD	2	434.01
AK	AD	3	801.26
AK	AD	4	835.22
AK	AD	5	946.03
AK	AE	1	367.53
AK	AE	2	180.81
AK	AE	3	333.82
AK	AE	4	347.96
AK	AE	5	394.13
AK	AF	1	585.41
AK	AF	2	288.00
AK	AF	3	531.70
AK	AF	4	554.23
AK	AF	5	627.77
AK	AG	1	600.80
AK	AG	2	295.57
AK	AG	3	545.68
AK	AG	4	568.81
AK	AG	5	644.27
AK	AH	1	334.87
AK	AH	2	164.74
AK	AH	3	304.14
AK	AH	4	317.03
AK	AH	5	359.10
AK	AI	1	543.38
AK	AI	2	267.32
AK	AI	3	493.53
AK	AI	4	514.44
AK	AI	5	582.69
AK	AJ	1	351.57
AK	AJ	2	172.96
AK	AJ	3	319.32
AK	AJ	4	332.85
AK	AJ	5	377.01
AL	AA	1	594.70
AL	AA	2	292.57
AL	AA	3	540.15
AL	AA	4	563.04
AL	AA	5	637.74
AL	AB	1	327.84
AL	AB	2	161.29
AL	AB	3	297.76
AL	AB	4	310.38
AL	AB	5	351.56
AL	AC	1	524.61
AL	AC	2	258.09
AL	AC	3	476.48
AL	AC	4	496.67
AL	AC	5	562.57
AL	AD	1	531.24
AL	AD	2	261.35
AL	AD	3	482.50
AL	AD	4	502.95
AL	AD	5	569.68
AL	AE	1	387.38
AL	AE	2	190.57
AL	AE	3	351.84
AL	AE	4	366.75
AL	AE	5	415.41
AL	AF	1	155.65
AL	AF	2	76.57
AL	AF	3	141.37
AL	AF	4	147.36
AL	AF	5	166.91
AL	AG	1	428.42
AL	AG	2	210.77
AL	AG	3	389.12
AL	AG	4	405.61
AL	AG	5	459.42
AL	AH	1	682.49
AL	AH	2	335.76
AL	AH	3	619.87
AL	AH	4	646.14
AL	AH	5	731.87
AL	AI	1	525.58
AL	AI	2	258.56
AL	AI	3	477.36
AL	AI	4	497.59
AL	AI	5	563.61
AL	AJ	1	380.31
AL	AJ	2	187.10
AL	AJ	3	345.42
AL	AJ	4	360.06
AL	AJ	5	407.83
AM	AA	1	626.08
AM	AA	2	308.01
AM	AA	3	568.64
AM	AA	4	592.74
AM	AA	5	671.39
AM	AB	1	144.19
AM	AB	2	70.93
AM	AB	3	130.96
AM	AB	4	136.51
AM	AB	5	154.62
AM	AC	1	299.63
AM	AC	2	147.41
AM	AC	3	272.14
AM	AC	4	283.67
AM	AC	5	321.31
AM	AD	1	730.37
AM	AD	2	359.31
AM	AD	3	663.36
AM	AD	4	691.47
AM	AD	5	783.21
AM	AE	1	583.50
AM	AE	2	287.06
AM	AE	3	529.97
AM	AE	4	552.43
AM	AE	5	625.73
AM	AF	1	369.54
AM	AF	2	181.80
AM	AF	3	335.64
AM	AF	4	349.86
AM	AF	5	396.28
AM	AG	1	653.29
AM	AG	2	321.40
AM	AG	3	593.36
AM	AG	4	618.50
AM	AG	5	700.56
AM	AH	1	834.11
AM	AH	2	410.35
AM	AH	3	757.59
AM	AH	4	789.69
AM	AH	5	894.47
AM	AI	1	362.48
AM	AI	2	178.33
AM	AI	3	329.23
AM	AI	4	343.18
AM	AI	5	388.71
AM	AJ	1	307.94
AM	AJ	2	151.50
AM	AJ	3	279.69
AM	AJ	4	291.54
AM	AJ	5	330.22
AN	AA	1	768.60
AN	AA	2	378.12
AN	AA	3	698.08
AN	AA	4	727.67
AN	AA	5	824.21
AN	AB	1	179.85
AN	AB	2	88.48
AN	AB	3	163.35
AN	AB	4	170.28
AN	AB	5	192.87
AN	AC	1	433.46
AN	AC	2	213.24
AN	AC	3	393.69
AN	AC	4	410.37
AN	AC	5	464.82
AN	AD	1	589.70
AN	AD	2	290.11
AN	AD	3	535.60
AN	AD	4	558.30
AN	AD	5	632.37
AN	AE	1	595.62
AN	AE	2	293.02
AN	AE	3	540.97
AN	AE	4	563.90
AN	AE	5	638.71
AN	AF	1	284.24
AN	AF	2	139.83
AN	AF	3	258.16
AN	AF	4	269.10
AN	AF	5	304.81
AN	AG	1	591.97
AN	AG	2	291.23
AN	AG	3	537.66
AN	AG	4	560.44
AN	AG	5	634.80
AN	AH	1	895.31
AN	AH	2	440.46
AN	AH	3	813.17
AN	AH	4	847.63
AN	AH	5	960.09
AN	AI	1	553.60
AN	AI	2	272.35
AN	AI	3	502.81
AN	AI	4	524.12
AN	AI	5	593.66
AN	AJ	1	484.13
AN	AJ	2	238.17
AN	AJ	3	439.71
AN	AJ	4	458.35
AN	AJ	5	519.16
AO	AA	1	793.88
AO	AA	2	390.56
AO	AA	3	721.05
AO	AA	4	751.60
AO	AA	5	851.33
AO	AB	1	110.06
AO	AB	2	54.15
AO	AB	3	99.96
AO	AB	4	104.20
AO	AB	5	118.02
AO	AC	1	160.40
AO	AC	2	78.91
AO	AC	3	145.68
AO	AC	4	151.85
AO	AC	5	172.00
AO	AD	1	879.32
AO	AD	2	432.59
AO	AD	3	798.65
AO	AD	4	832.49
AO	AD	5	942.94
AO	AE	1	795.96
AO	AE	2	391.58
AO	AE	3	722.94
AO	AE	4	753.57
AO	AE	5	853.56
AO	AF	1	550.75
AO	AF	2	270.95
AO	AF	3	500.22
AO	AF	4	521.42
AO	AF	5	590.60
AO	AG	1	850.33
AO	AG	2	418.33
AO	AG	3	772.32
AO	AG	4	805.05
AO	AG	5	911.86
AO	AH	1	1042.21
AO	AH	2	512.73
AO	AH	3	946.60
AO	AH	4	986.71
AO	AH	5	1117.62
AO	AI	1	396.47
AO	AI	2	195.05
AO	AI	3	360.10
AO	AI	4	375.36
AO	AI	5	425.16
AO	AJ	1	449.86
AO	AJ	2	221.31
AO	AJ	3	408.59
AO	AJ	4	425.90
AO	AJ	5	482.41
AP	AA	1	791.81
AP	AA	2	389.54
AP	AA	3	719.17
AP	AA	4	749.64
AP	AA	5	849.11
AP	AB	1	277.62
AP	AB	2	136.58
AP	AB	3	252.15
AP	AB	4	262.84
AP	AB	5	297.71
AP	AC	1	530.69
AP	AC	2	261.08
AP	AC	3	482.01
AP	AC	4	502.43
AP	AC	5	569.09
AP	AD	1	492.51
AP	AD	2	242.30
AP	AD	3	447.33
AP	AD	4	466.28
AP	AD	5	528.15
AP	AE	1	553.38
AP	AE	2	272.24
AP	AE	3	502.61
AP	AE	4	523.91
AP	AE	5	593.42
AP	AF	1	214.57
AP	AF	2	105.56
AP	AF	3	194.88
AP	AF	4	203.14
AP	AF	5	230.09
AP	AG	1	517.37
AP	AG	2	254.53
AP	AG	3	469.90
AP	AG	4	489.82
AP	AG	5	554.81
AP	AH	1	869.59
AP	AH	2	427.81
AP	AH	3	789.82
AP	AH	4	823.29
AP	AH	5	932.52
AP	AI	1	632.76
AP	AI	2	311.29
AP	AI	3	574.71
AP	AI	4	599.06
AP	AI	5	678.54
AP	AJ	1	538.26
AP	AJ	2	264.80
AP	AJ	3	488.88
AP	AJ	4	509.60
AP	AJ	5	577.21
AQ	AA	1	501.10
AQ	AA	2	246.52
AQ	AA	3	455.13
AQ	AA	4	474.41
AQ	AA	5	537.36
AQ	AB	1	265.05
AQ	AB	2	130.40
AQ	AB	3	240.73
AQ	AB	4	250.94
AQ	AB	5	284.23
AQ	AC	1	336.61
AQ	AC	2	165.60
AQ	AC	3	305.73
AQ	AC	4	318.68
AQ	AC	5	360.97
AQ	AD	1	772.82
AQ	AD	2	380.20
AQ	AD	3	701.92
AQ	AD	4	731.67
AQ	AD	5	828.74
AQ	AE	1	527.28
AQ	AE	2	259.40
AQ	AE	3	478.91
AQ	AE	4	499.20
AQ	AE	5	565.44
AQ	AF	1	397.18
AQ	AF	2	195.40
AQ	AF	3	360.74
AQ	AF	4	376.03
AQ	AF	5	425.92
AQ	AG	1	641.53
AQ	AG	2	315.61
AQ	AG	3	582.68
AQ	AG	4	607.37
AQ	AG	5	687.95
AQ	AH	1	740.79
AQ	AH	2	364.44
AQ	AH	3	672.83
AQ	AH	4	701.34
AQ	AH	5	794.39
AQ	AI	1	284.49
AQ	AI	2	139.96
AQ	AI	3	258.39
AQ	AI	4	269.34
AQ	AI	5	305.07
AQ	AJ	1	182.79
AQ	AJ	2	89.93
AQ	AJ	3	166.02
AQ	AJ	4	173.06
AQ	AJ	5	196.02
AR	AA	1	709.96
AR	AA	2	349.27
AR	AA	3	644.82
AR	AA	4	672.15
AR	AA	5	761.33
AR	AB	1	498.34
AR	AB	2	245.17
AR	AB	3	452.62
AR	AB	4	471.80
AR	AB	5	534.40
AR	AC	1	722.66
AR	AC	2	355.52
AR	AC	3	656.36
AR	AC	4	684.18
AR	AC	5	774.95
AR	AD	1	328.28
AR	AD	2	161.50
AR	AD	3	298.16
AR	AD	4	310.80
AR	AD	5	352.04
AR	AE	1	334.81
AR	AE	2	164.71
AR	AE	3	304.09
AR	AE	4	316.98
AR	AE	5	359.03
AR	AF	1	55.32
AR	AF	2	27.21
AR	AF	3	50.24
AR	AF	4	52.37
AR	AF	5	59.32
AR	AG	1	259.40
AR	AG	2	127.61
AR	AG	3	235.60
AR	AG	4	245.58
AR	AG	5	278.17
AR	AH	1	668.21
AR	AH	2	328.73
AR	AH	3	606.91
AR	AH	4	632.62
AR	AH	5	716.56
AR	AI	1	730.87
AR	AI	2	359.56
AR	AI	3	663.82
AR	AI	4	691.95
AR	AI	5	783.76
AR	AJ	1	568.84
AR	AJ	2	279.85
AR	AJ	3	516.65
AR	AJ	4	538.55
AR	AJ	5	610.00
AS	AA	1	825.03
AS	AA	2	405.88
AS	AA	3	749.34
AS	AA	4	781.09
AS	AA	5	884.73
AS	AB	1	155.67
AS	AB	2	76.58
AS	AB	3	141.39
AS	AB	4	147.38
AS	AB	5	166.93
AS	AC	1	139.77
AS	AC	2	68.76
AS	AC	3	126.94
AS	AC	4	132.32
AS	AC	5	149.88
AS	AD	1	923.59
AS	AD	2	454.37
AS	AD	3	838.86
AS	AD	4	874.41
AS	AD	5	990.42
AS	AE	1	842.36
AS	AE	2	414.41
AS	AE	3	765.08
AS	AE	4	797.51
AS	AE	5	903.32
AS	AF	1	598.17
AS	AF	2	294.28
AS	AF	3	543.29
AS	AF	4	566.32
AS	AF	5	641.45
AS	AG	1	898.12
AS	AG	2	441.84
AS	AG	3	815.73
AS	AG	4	850.30
AS	AG	5	963.11
AS	AH	1	1084.43
AS	AH	2	533.50
AS	AH	3	984.94
AS	AH	4	1026.68
AS	AH	5	1162.90
AS	AI	1	405.30
AS	AI	2	199.39
AS	AI	3	368.11
AS	AI	4	383.71
AS	AI	5	434.62
AS	AJ	1	479.07
AS	AJ	2	235.68
AS	AJ	3	435.11
AS	AJ	4	453.55
AS	AJ	5	513.73
AT	AA	1	768.15
AT	AA	2	377.90
AT	AA	3	697.67
AT	AA	4	727.24
AT	AA	5	823.73
AT	AB	1	122.46
AT	AB	2	60.24
AT	AB	3	111.22
AT	AB	4	115.94
AT	AB	5	131.32
AT	AC	1	377.90
AT	AC	2	185.91
AT	AC	3	343.23
AT	AC	4	357.78
AT	AC	5	405.25
AT	AD	1	647.39
AT	AD	2	318.49
AT	AD	3	588.00
AT	AD	4	612.92
AT	AD	5	694.24
AT	AE	1	632.41
AT	AE	2	311.12
AT	AE	3	574.39
AT	AE	4	598.73
AT	AE	5	678.17
AT	AF	1	335.65
AT	AF	2	165.13
AT	AF	3	304.86
AT	AF	4	317.77
AT	AF	5	359.94
AT	AG	1	642.80
AT	AG	2	316.24
AT	AG	3	583.83
AT	AG	4	608.57
AT	AG	5	689.32
AT	AH	1	921.97
AT	AH	2	453.57
AT	AH	3	837.38
AT	AH	4	872.87
AT	AH	5	988.68
AT	AI	1	515.57
AT	AI	2	253.64
AT	AI	3	468.27
AT	AI	4	488.11
AT	AI	5	552.87
AT	AJ	1	466.29
AT	AJ	2	229.40
AT	AJ	3	423.51
AT	AJ	4	441.45
AT	AJ	5	500.03
;

table R={R}  q(R)  p(R)  d(R):
	R	q	p	d	:=
	1	7.0	AA	AF
	2	5.0	AB	AG
	3	9.0	AC	AH
	4	16.0	AD	AI
	5	19.0	AE	AJ
;

